(declare-fun temp870_1 () (_ BitVec 64))
(declare-fun var331528 () (_ BitVec 64))
(declare-fun temp870_2 () (_ BitVec 64))
(declare-fun var462600 () (_ BitVec 64))
(declare-fun temp870_3 () (_ BitVec 64))
(declare-fun var2432152 () (_ BitVec 64))
(declare-fun ARGNAME_input_NAMEEND_DIM () (_ BitVec 64))
(declare-fun temp870_4 () (_ BitVec 64))
(declare-fun var2432153 () (_ BitVec 64))
(declare-fun temp870_5 () (_ BitVec 64))
(declare-fun var2432160 () (_ BitVec 64))
(declare-fun var2432194 () (_ BitVec 64))
(declare-fun temp870_6 () (_ BitVec 64))
(declare-fun var3018504 () (_ BitVec 64))
(declare-fun var3018506 () (_ BitVec 64))
(declare-fun var3084242 () (_ BitVec 64))
(declare-fun temp870_8 () (_ BitVec 64))
(declare-fun temp870_7 () (_ BitVec 64))
(declare-fun temp870_9 () (_ BitVec 64))
(declare-fun var5773748 () (_ BitVec 64))
(declare-fun var5839295 () (_ BitVec 64))
(declare-fun temp870_10 () (_ BitVec 64))
(declare-fun var6883126 () (_ BitVec 64))
(declare-fun var7082204 () (_ BitVec 64))
(declare-fun temp870_12 () (_ BitVec 64))
(declare-fun temp870_11 () (_ BitVec 64))
(declare-fun temp870_13 () (_ BitVec 64))
(declare-fun var8198177 () (_ BitVec 64))
(declare-fun temp870_14 () (_ BitVec 64))
(declare-fun var8456171 () (_ BitVec 64))
(declare-fun temp870_16 () (_ BitVec 64))
(declare-fun temp870_15 () (_ BitVec 64))
(declare-fun var8522615 () (_ BitVec 64))
(declare-fun temp870_17 () (_ BitVec 64))
(declare-fun var8589064 () (_ BitVec 64))
(declare-fun var8654609 () (_ BitVec 64))
(declare-fun temp870_19 () (_ BitVec 64))
(declare-fun temp870_18 () (_ BitVec 64))
(declare-fun temp870_20 () (_ BitVec 64))
(declare-fun var8851191 () (_ BitVec 64))
(declare-fun temp870_21 () (_ BitVec 64))
(declare-fun var8456232 () (_ BitVec 64))
(declare-fun var8456274 () (_ BitVec 64))
(declare-fun var8456219 () (_ BitVec 64))
(declare-fun var8456218 () (_ BitVec 64))
(declare-fun temp870_22 () (_ BitVec 64))
(declare-fun var8456223 () (_ BitVec 64))
(declare-fun temp870_23 () (_ BitVec 64))
(declare-fun var8456225 () (_ BitVec 64))
(declare-fun temp870_24 () (_ BitVec 64))
(declare-fun var9504974 () (_ BitVec 64))
(declare-fun temp870_25 () (_ BitVec 64))
(declare-fun temp870_26 () (_ BitVec 64))
(declare-fun var9505004 () (_ BitVec 64))
(declare-fun var9505051 () (_ BitVec 64))
(declare-fun var9504972 () (_ BitVec 64))
(declare-fun var8198234 () (_ BitVec 64))
(declare-fun var8198235 () (_ BitVec 64))
(declare-fun temp870_27 () (_ BitVec 64))
(declare-fun var9638533 () (_ BitVec 64))
(declare-fun var9638537 () (_ BitVec 64))
(declare-fun var9638538 () (_ BitVec 64))
(assert (= temp870_1 #x0000000000000005))
(assert (= var331528 temp870_1))
(assert (= temp870_2 #x0000000000000005))
(assert (= var462600 temp870_2))
(assert (= temp870_3 #x0000000000000001))
(assert (= var2432152
   (ite (bvsgt ARGNAME_input_NAMEEND_DIM temp870_3)
        #x0000000000000001
        #x0000000000000000)))
(assert (= temp870_4 #x0000000000000001))
(assert (= var2432153
   (ite (= var2432152 #x0000000000000001) ARGNAME_input_NAMEEND_DIM temp870_4)))
(assert (= temp870_5 #xffffffffffffffff))
(assert (= var2432160 (bvadd var2432153 temp870_5)))
(assert (= var2432194 var2432160))
(assert (= temp870_6 #x0000000000000005))
(assert (= var3018504 temp870_6))
(assert (= var3018506 var3018504))
(assert (= var3084242 var3018506))
(assert (= temp870_8 #x0000000000000000))
(assert (= temp870_7 temp870_8))
(assert (= temp870_9 #x0000000000000000))
(assert (= var5773748 temp870_9))
(assert (= var5839295 var5773748))
(assert (= temp870_10 #x0000000000000001))
(assert (= var6883126 temp870_10))
(assert (= var7082204 var6883126))
(assert (= temp870_12 #x0000000000000000))
(assert (= temp870_11 temp870_12))
(assert (= temp870_13 #x0000000000000001))
(assert (= var8198177 temp870_13))
(assert (= temp870_14 #x0000000000000001))
(assert (= var8456171 (bvshl ARGNAME_input_NAMEEND_DIM temp870_14)))
(assert (= temp870_16 #x0000000000000000))
(assert (= temp870_15 temp870_16))
(assert (= var8522615 var8456171))
(assert (= temp870_17 #x0000000000000005))
(assert (= var8589064 temp870_17))
(assert (= var8654609 var8522615))
(assert (= temp870_19 #x0000000000000000))
(assert (= temp870_18 temp870_19))
(assert (= temp870_20 #x0000000000000000))
(assert (= var8851191 temp870_20))
(assert (= temp870_21 #x0000000000000000))
(assert (= var8456232 temp870_21))
(assert (= var8456274 var8456232))
(assert (= var8456219 var8456274))
(assert (= var8456218 var8456219))
(assert (= temp870_22 #x0000000000000001))
(assert (= var8456223 (bvand var8456218 temp870_22)))
(assert (= temp870_23 #x0000000000000000))
(assert (= var8456225
   (ite (= var8456223 temp870_23) #x0000000000000001 #x0000000000000000)))
(assert (= temp870_24 #x0000000000000001))
(assert (= var8456225 temp870_24))
(assert (= var9504974 var8198177))
(assert (= temp870_25 #x0000000000000000))
(assert (= temp870_26 #x0000000000000002))
(assert (= var9505004 (ite (= var9504974 #x0000000000000001) temp870_25 temp870_26)))
(assert (= var9505051 var9505004))
(assert (= var9504972 var9505051))
(assert (= var8198234 var9504972))
(assert (= var8198235 var8198234))
(assert (= temp870_27 #x0000000000000004))
(assert (= var9638533 temp870_27))
(assert (= var9638537 var8198235))
(assert (= var9638538 var8198177))
(model-add temp870_1 () (_ BitVec 64) #x0000000000000005)
(model-add var331528 () (_ BitVec 64) #x0000000000000005)
(model-add temp870_2 () (_ BitVec 64) #x0000000000000005)
(model-add var462600 () (_ BitVec 64) #x0000000000000005)
(model-add temp870_3 () (_ BitVec 64) #x0000000000000001)
(model-add var2432152
           ()
           (_ BitVec 64)
           (ite (bvsle ARGNAME_input_NAMEEND_DIM #x0000000000000001)
                #x0000000000000000
                #x0000000000000001))
(model-add temp870_4 () (_ BitVec 64) #x0000000000000001)
(model-add var2432153
           ()
           (_ BitVec 64)
           (ite (= (ite (bvsle ARGNAME_input_NAMEEND_DIM #x0000000000000001)
                        #x0000000000000000
                        #x0000000000000001)
                   #x0000000000000001)
                ARGNAME_input_NAMEEND_DIM
                #x0000000000000001))
(model-add temp870_5 () (_ BitVec 64) #xffffffffffffffff)
(model-add var2432160
           ()
           (_ BitVec 64)
           (let ((a!1 (ite (= (ite (bvsle ARGNAME_input_NAMEEND_DIM
                                          #x0000000000000001)
                                   #x0000000000000000
                                   #x0000000000000001)
                              #x0000000000000001)
                           ARGNAME_input_NAMEEND_DIM
                           #x0000000000000001)))
             (bvadd #xffffffffffffffff a!1)))
(model-add var2432194
           ()
           (_ BitVec 64)
           (let ((a!1 (ite (= (ite (bvsle ARGNAME_input_NAMEEND_DIM
                                          #x0000000000000001)
                                   #x0000000000000000
                                   #x0000000000000001)
                              #x0000000000000001)
                           ARGNAME_input_NAMEEND_DIM
                           #x0000000000000001)))
             (bvadd #xffffffffffffffff a!1)))
(model-add temp870_6 () (_ BitVec 64) #x0000000000000005)
(model-add var3018504 () (_ BitVec 64) #x0000000000000005)
(model-add var3018506 () (_ BitVec 64) #x0000000000000005)
(model-add var3084242 () (_ BitVec 64) #x0000000000000005)
(model-add temp870_8 () (_ BitVec 64) #x0000000000000000)
(model-add temp870_7 () (_ BitVec 64) #x0000000000000000)
(model-add temp870_9 () (_ BitVec 64) #x0000000000000000)
(model-add var5773748 () (_ BitVec 64) #x0000000000000000)
(model-add var5839295 () (_ BitVec 64) #x0000000000000000)
(model-add temp870_10 () (_ BitVec 64) #x0000000000000001)
(model-add var6883126 () (_ BitVec 64) #x0000000000000001)
(model-add var7082204 () (_ BitVec 64) #x0000000000000001)
(model-add temp870_12 () (_ BitVec 64) #x0000000000000000)
(model-add temp870_11 () (_ BitVec 64) #x0000000000000000)
(model-add temp870_13 () (_ BitVec 64) #x0000000000000001)
(model-add var8198177 () (_ BitVec 64) #x0000000000000001)
(model-add temp870_14 () (_ BitVec 64) #x0000000000000001)
(model-add var8456171
           ()
           (_ BitVec 64)
           (concat ((_ extract 62 0) ARGNAME_input_NAMEEND_DIM) #b0))
(model-add temp870_16 () (_ BitVec 64) #x0000000000000000)
(model-add temp870_15 () (_ BitVec 64) #x0000000000000000)
(model-add var8522615
           ()
           (_ BitVec 64)
           (concat ((_ extract 62 0) ARGNAME_input_NAMEEND_DIM) #b0))
(model-add temp870_17 () (_ BitVec 64) #x0000000000000005)
(model-add var8589064 () (_ BitVec 64) #x0000000000000005)
(model-add var8654609
           ()
           (_ BitVec 64)
           (concat ((_ extract 62 0) ARGNAME_input_NAMEEND_DIM) #b0))
(model-add temp870_19 () (_ BitVec 64) #x0000000000000000)
(model-add temp870_18 () (_ BitVec 64) #x0000000000000000)
(model-add temp870_20 () (_ BitVec 64) #x0000000000000000)
(model-add var8851191 () (_ BitVec 64) #x0000000000000000)
(model-add temp870_21 () (_ BitVec 64) #x0000000000000000)
(model-add var8456232 () (_ BitVec 64) #x0000000000000000)
(model-add var8456274 () (_ BitVec 64) #x0000000000000000)
(model-add var8456219 () (_ BitVec 64) #x0000000000000000)
(model-add var8456218 () (_ BitVec 64) #x0000000000000000)
(model-add temp870_22 () (_ BitVec 64) #x0000000000000001)
(model-add var8456223 () (_ BitVec 64) #x0000000000000000)
(model-add temp870_23 () (_ BitVec 64) #x0000000000000000)
(model-add var8456225 () (_ BitVec 64) #x0000000000000001)
(model-add temp870_24 () (_ BitVec 64) #x0000000000000001)





